Route #1: 52
Route #2: 48 36
Route #3: 20
Route #4: 43
Route #5: 30 4 38 26 13 50 62
Route #6: 17
Route #7: 46 60 54 21
Route #8: 31 24 7 61 23 16
Route #9: 29 56 40 25 15 49 53
Route #10: 10 59 5 18 45 39 3 42 19
Route #11: 28 57 32 44 47 11 34 51
Route #12: 33 55 22 58
Route #13: 37 8 35 27 6
Route #14: 12 9 2 41 1 14
cost: 1473.4473616053424
